# Objective value = 10
x_0 1
x_1 1
x_2 1
x_3 1
x_4 0
x_5 0
x_6 0
x_7 0
x_8 0
x_9 0
x_10 0
x_11 0
x_12 0
x_13 0
x_14 0
x_15 0
x_16 0
x_17 0
x_18 0
x_19 0
x_20 0
x_21 0
x_22 0
x_23 0
x_24 0
x_25 0
x_26 0
x_27 0
x_28 0
x_29 0
x_30 0
x_31 0
x_32 0
x_33 0
x_34 0
x_35 0
x_36 0
x_37 0
x_38 0
x_39 0
x_40 0
x_41 0
x_42 0
x_43 0
x_44 0
x_45 0
x_46 0
x_47 0
x_48 0
x_49 0
x_50 0
x_51 0
x_52 0
x_53 0
x_54 0
x_55 0
x_56 0
x_57 0
x_58 0
x_59 0
x_60 0
x_61 0
x_62 0
x_63 0
x_64 1
x_65 0
x_66 0
x_67 0
x_68 0
x_69 0
x_70 0
x_71 0
x_72 0
x_73 0
x_74 0
x_75 0
x_76 0
x_77 0
x_78 0
x_79 0
x_80 0
x_81 0
x_82 0
x_83 0
x_84 0
x_85 0
x_86 0
x_87 0
x_88 0
x_89 0
x_90 0
x_91 0
x_92 0
x_93 0
x_94 0
x_95 0
x_96 0
x_97 0
x_98 0
x_99 0
x_100 0
x_101 0
x_102 0
x_103 0
x_104 0
x_105 0
x_106 0
x_107 0
x_108 0
x_109 0
x_110 0
x_111 0
x_112 0
x_113 0
x_114 0
x_115 0
x_116 0
x_117 0
x_118 0
x_119 0
x_120 0
x_121 0
x_122 0
x_123 0
x_124 0
x_125 0
x_126 0
x_127 0
x_128 1
x_129 1
x_130 1
x_131 1
x_132 0
x_133 0
x_134 0
x_135 0
x_136 0
x_137 0
x_138 0
x_139 0
x_140 0
x_141 0
x_142 0
x_143 0
x_144 0
x_145 0
x_146 0
x_147 0
x_148 0
x_149 0
x_150 0
x_151 0
x_152 0
x_153 0
x_154 0
x_155 0
x_156 0
x_157 0
x_158 0
x_159 0
x_160 0
x_161 0
x_162 0
x_163 0
x_164 0
x_165 0
x_166 0
x_167 0
x_168 0
x_169 0
x_170 0
x_171 0
x_172 0
x_173 0
x_174 0
x_175 0
x_176 0
x_177 0
x_178 0
x_179 0
x_180 0
x_181 0
x_182 0
x_183 0
x_184 0
x_185 0
x_186 0
x_187 0
x_188 0
x_189 0
x_190 0
x_191 0
x_192 1
x_193 0
x_194 0
x_195 0
x_196 0
x_197 0
x_198 0
x_199 0
x_200 0
x_201 0
x_202 0
x_203 0
x_204 0
x_205 0
x_206 0
x_207 0
x_208 0
x_209 0
x_210 0
x_211 0
x_212 0
x_213 0
x_214 0
x_215 0
x_216 0
x_217 0
x_218 0
x_219 0
x_220 0
x_221 0
x_222 0
x_223 0
x_224 0
x_225 0
x_226 0
x_227 0
x_228 0
x_229 0
x_230 0
x_231 0
x_232 0
x_233 0
x_234 0
x_235 0
x_236 0
x_237 0
x_238 0
x_239 0
x_240 0
x_241 0
x_242 0
x_243 0
x_244 0
x_245 0
x_246 0
x_247 0
x_248 0
x_249 0
x_250 0
x_251 0
x_252 0
x_253 0
x_254 0
x_255 0
d0 1
d1 0
d2 0
d3 0
d4 0
d5 0
d6 0
d7 0
d8 0
d9 0
d10 0
d11 0
d12 0
d13 0
d14 0
d15 0
d16 1
d17 0
d18 0
d19 0
d20 0
d21 0
d22 0
d23 0
d24 0
d25 0
d26 0
d27 0
d28 0
d29 0
d30 0
d31 0
d32 1
d33 0
d34 0
d35 0
d36 0
d37 0
d38 0
d39 0
d40 0
d41 0
d42 0
d43 0
d44 0
d45 0
d46 0
d47 0
x_256 1
x_257 1
x_258 1
x_259 1
d48 1
x_260 0
x_261 0
x_262 0
x_263 0
d49 0
x_264 0
x_265 0
x_266 0
x_267 0
d50 0
x_268 0
x_269 0
x_270 0
x_271 0
d51 0
x_272 0
x_273 0
x_274 0
x_275 0
d52 0
x_276 0
x_277 0
x_278 0
x_279 0
d53 0
x_280 0
x_281 0
x_282 0
x_283 0
d54 0
x_284 0
x_285 0
x_286 0
x_287 0
d55 0
x_288 0
x_289 0
x_290 0
x_291 0
d56 0
x_292 0
x_293 0
x_294 0
x_295 0
d57 0
x_296 0
x_297 0
x_298 0
x_299 0
d58 0
x_300 0
x_301 0
x_302 0
x_303 0
d59 0
x_304 0
x_305 0
x_306 0
x_307 0
d60 0
x_308 0
x_309 0
x_310 0
x_311 0
d61 0
x_312 0
x_313 0
x_314 0
x_315 0
d62 0
x_316 0
x_317 0
x_318 0
x_319 0
d63 0
